Minimize
	value: tt

Subject to
tt + 2000 s_1_1 > 0
tt - t_1_1 - 2000.000000 s_1_1 > -1998.652800
tt + 2000 s_2_1 > 0
tt - t_2_1 - 2000.000000 s_2_1 > -1994.465714
tt + 2000 s_1_2 > 0
tt - t_1_2 - 2000.000000 s_1_2 > -1997.279100
tt + 2000 s_2_2 > 0
tt - t_2_2 - 2000.000000 s_2_2 > -1994.220714
tt + 2000 s_1_3 > 0
tt - t_1_3 - 2000.000000 s_1_3 > -1999.370100
tt + 2000 s_2_3 > 0
tt - t_2_3 - 2000.000000 s_2_3 > -1999.026000
tt + 2000 s_1_4 > 0
tt - t_1_4 - 2000.000000 s_1_4 > -1998.720200
tt + 2000 s_2_4 > 0
tt - t_2_4 - 2000.000000 s_2_4 > -1998.064595
tt + 2000 s_1_5 > 0
tt - t_1_5 - 2019.593080 s_1_5 + 19.593080 s_1_1 > -1999.897900
tt + 2000 s_2_5 > 0
tt - t_2_5 - 2056.569488 s_2_5 + 56.569488 s_2_1 > -1998.624750
s_1_1 + s_2_1  = 1
s_1_2 + s_2_2  = 1
s_1_3 + s_2_3  = 1
s_1_4 + s_2_4  = 1
s_1_5 + s_2_5  = 1
t_1_1 - t_1_2 + 2000.000000 u_1_1_2 > 2.720900
t_1_2 - t_1_1 - 2000.000000 u_1_1_2 > -1998.652800
t_2_1 - t_2_2 + 2000.000000 u_2_1_2 > 5.779286
t_2_2 - t_2_1 - 2000.000000 u_2_1_2 > -1994.465714
t_1_1 - t_1_3 + 2000.000000 u_1_1_3 > 0.629900
t_1_3 - t_1_1 - 2000.000000 u_1_1_3 > -1998.652800
t_2_1 - t_2_3 + 2000.000000 u_2_1_3 > 0.974000
t_2_3 - t_2_1 - 2000.000000 u_2_1_3 > -1994.465714
t_1_1 - t_1_4 + 2000.000000 u_1_1_4 > 1.279800
t_1_4 - t_1_1 - 2000.000000 u_1_1_4 > -1998.652800
t_2_1 - t_2_4 + 2000.000000 u_2_1_4 > 1.935405
t_2_4 - t_2_1 - 2000.000000 u_2_1_4 > -1994.465714
t_1_5 - t_1_1 - 2000.000000 s_1_1 > -1994.461710
t_1_5 - t_2_1 - 2000.000000 s_2_1 > -1982.090858
t_2_5 - t_1_1 - 2000.000000 s_1_1 > -1994.461710
t_2_5 - t_2_1 - 2000.000000 s_2_1 > -1982.090858
t_1_2 - t_1_1 + 2000.000000 u_1_2_1 > 1.347200
t_1_1 - t_1_2 - 2000.000000 u_1_2_1 > -1997.279100
t_2_2 - t_2_1 + 2000.000000 u_2_2_1 > 5.534286
t_2_1 - t_2_2 - 2000.000000 u_2_2_1 > -1994.220714
t_1_2 - t_1_3 + 2000.000000 u_1_2_3 > 0.629900
t_1_3 - t_1_2 - 2000.000000 u_1_2_3 > -1997.279100
t_2_2 - t_2_3 + 2000.000000 u_2_2_3 > 0.974000
t_2_3 - t_2_2 - 2000.000000 u_2_2_3 > -1994.220714
t_1_2 - t_1_4 + 2000.000000 u_1_2_4 > 1.279800
t_1_4 - t_1_2 - 2000.000000 u_1_2_4 > -1997.279100
t_2_2 - t_2_4 + 2000.000000 u_2_2_4 > 1.935405
t_2_4 - t_2_2 - 2000.000000 u_2_2_4 > -1994.220714
t_1_5 - t_1_2 - 2000.000000 s_1_2 > -1993.088010
t_1_5 - t_2_2 - 2000.000000 s_2_2 > -1981.845858
t_2_5 - t_1_2 - 2000.000000 s_1_2 > -1993.088010
t_2_5 - t_2_2 - 2000.000000 s_2_2 > -1981.845858
t_1_3 - t_1_1 + 2000.000000 u_1_3_1 > 1.347200
t_1_1 - t_1_3 - 2000.000000 u_1_3_1 > -1999.370100
t_2_3 - t_2_1 + 2000.000000 u_2_3_1 > 5.534286
t_2_1 - t_2_3 - 2000.000000 u_2_3_1 > -1999.026000
t_1_3 - t_1_2 + 2000.000000 u_1_3_2 > 2.720900
t_1_2 - t_1_3 - 2000.000000 u_1_3_2 > -1999.370100
t_2_3 - t_2_2 + 2000.000000 u_2_3_2 > 5.779286
t_2_2 - t_2_3 - 2000.000000 u_2_3_2 > -1999.026000
t_1_3 - t_1_4 + 2000.000000 u_1_3_4 > 1.279800
t_1_4 - t_1_3 - 2000.000000 u_1_3_4 > -1999.370100
t_2_3 - t_2_4 + 2000.000000 u_2_3_4 > 1.935405
t_2_4 - t_2_3 - 2000.000000 u_2_3_4 > -1999.026000
t_1_5 - t_1_3 - 2000.000000 s_1_3 > -1995.179010
t_1_5 - t_2_3 - 2000.000000 s_2_3 > -1986.651144
t_2_5 - t_1_3 - 2000.000000 s_1_3 > -1995.179010
t_2_5 - t_2_3 - 2000.000000 s_2_3 > -1986.651144
t_1_4 - t_1_1 + 2000.000000 u_1_4_1 > 1.347200
t_1_1 - t_1_4 - 2000.000000 u_1_4_1 > -1998.720200
t_2_4 - t_2_1 + 2000.000000 u_2_4_1 > 5.534286
t_2_1 - t_2_4 - 2000.000000 u_2_4_1 > -1998.064595
t_1_4 - t_1_2 + 2000.000000 u_1_4_2 > 2.720900
t_1_2 - t_1_4 - 2000.000000 u_1_4_2 > -1998.720200
t_2_4 - t_2_2 + 2000.000000 u_2_4_2 > 5.779286
t_2_2 - t_2_4 - 2000.000000 u_2_4_2 > -1998.064595
t_1_4 - t_1_3 + 2000.000000 u_1_4_3 > 0.629900
t_1_3 - t_1_4 - 2000.000000 u_1_4_3 > -1998.720200
t_2_4 - t_2_3 + 2000.000000 u_2_4_3 > 0.974000
t_2_3 - t_2_4 - 2000.000000 u_2_4_3 > -1998.064595
t_1_5 - t_1_4 - 2000.000000 s_1_4 > -1994.529110
t_1_5 - t_2_4 - 2000.000000 s_2_4 > -1985.689739
t_2_5 - t_1_4 - 2000.000000 s_1_4 > -1994.529110
t_2_5 - t_2_4 - 2000.000000 s_2_4 > -1985.689739
t_1_5 - t_1_1 - 2000.000000 s_1_1 > -1994.461710
t_1_5 - t_2_1 - 2000.000000 s_2_1 > -1982.090858
t_2_5 - t_1_1 - 2000.000000 s_1_1 > -1994.461710
t_2_5 - t_2_1 - 2000.000000 s_2_1 > -1982.090858
t_1_5 - t_1_2 - 2000.000000 s_1_2 > -1993.088010
t_1_5 - t_2_2 - 2000.000000 s_2_2 > -1981.845858
t_2_5 - t_1_2 - 2000.000000 s_1_2 > -1993.088010
t_2_5 - t_2_2 - 2000.000000 s_2_2 > -1981.845858
t_1_5 - t_1_3 - 2000.000000 s_1_3 > -1995.179010
t_1_5 - t_2_3 - 2000.000000 s_2_3 > -1986.651144
t_2_5 - t_1_3 - 2000.000000 s_1_3 > -1995.179010
t_2_5 - t_2_3 - 2000.000000 s_2_3 > -1986.651144
t_1_5 - t_1_4 - 2000.000000 s_1_4 > -1994.529110
t_1_5 - t_2_4 - 2000.000000 s_2_4 > -1985.689739
t_2_5 - t_1_4 - 2000.000000 s_1_4 > -1994.529110
t_2_5 - t_2_4 - 2000.000000 s_2_4 > -1985.689739
Binary
s_1_1
s_2_1
s_1_2
s_2_2
s_1_3
s_2_3
s_1_4
s_2_4
s_1_5
s_2_5
u_1_1_2
u_2_1_2
u_1_1_3
u_2_1_3
u_1_1_4
u_2_1_4
u_1_2_1
u_2_2_1
u_1_2_3
u_2_2_3
u_1_2_4
u_2_2_4
u_1_3_1
u_2_3_1
u_1_3_2
u_2_3_2
u_1_3_4
u_2_3_4
u_1_4_1
u_2_4_1
u_1_4_2
u_2_4_2
u_1_4_3
u_2_4_3

End
